50, 614
42, 6
22, 9
12, 36
9, 16
28, 34
22, 35
37, 28
10, 18
7, 17
6, 35
6, 9
43, 13
36, 47
24, 36
7, 13
19, 26
17, 8
46, 28
39, 39
20, 14
3, 32
30, 25
4, 44
31, 38
19, 17
38, 37
50, 18
28, 24
42, 32
47, 41
6, 23
46, 34
2, 44
29, 31
40, 4
5, 27
16, 39
35, 31
20, 31
1, 14
47, 32
14, 4
40, 4
20, 19
25, 9
7, 21
12, 33
40, 19
47, 11
32, 20
